sat
(
  (define-fun PriceProv5 () Int
    480)
  (define-fun C2_VM10 () Int
    0)
  (define-fun C2_VM4 () Int
    0)
  (define-fun PriceProv4 () Int
    480)
  (define-fun C4_VM4 () Int
    0)
  (define-fun C1_VM9 () Int
    0)
  (define-fun StorageProv12 () Int
    141001)
  (define-fun C2_VM2 () Int
    1)
  (define-fun PriceProv2 () Int
    120)
  (define-fun C3_VM7 () Int
    1)
  (define-fun C5_VM6 () Int
    0)
  (define-fun C3_VM1 () Int
    0)
  (define-fun PriceProv1 () Int
    120)
  (define-fun C3_VM9 () Int
    0)
  (define-fun ProcProv7 () Int
    1800)
  (define-fun VM5Type () Int
    10)
  (define-fun MemProv11 () Int
    1350)
  (define-fun StorageProv10 () Int
    86999)
  (define-fun StorageProv11 () Int
    42000)
  (define-fun C2_VM12 () Int
    0)
  (define-fun VM11Type () Int
    0)
  (define-fun PriceProv6 () Int
    120)
  (define-fun C1_VM8 () Int
    0)
  (define-fun PriceProv11 () Int
    0)
  (define-fun C4_VM5 () Int
    0)
  (define-fun MemProv8 () Int
    1350)
  (define-fun C1_VM12 () Int
    0)
  (define-fun VM1Type () Int
    1)
  (define-fun C1_VM10 () Int
    0)
  (define-fun C1_VM1 () Int
    1)
  (define-fun MemProv9 () Int
    1350)
  (define-fun C2_VM5 () Int
    0)
  (define-fun VM7Type () Int
    7)
  (define-fun ProcProv4 () Int
    3600)
  (define-fun ProcProv1 () Int
    900)
  (define-fun C3_VM4 () Int
    0)
  (define-fun StorageProv8 () Int
    42000)
  (define-fun C3_VM2 () Int
    0)
  (define-fun C4_VM6 () Int
    0)
  (define-fun C5_VM7 () Int
    0)
  (define-fun StorageProv5 () Int
    141000)
  (define-fun C1_VM5 () Int
    1)
  (define-fun C4_VM9 () Int
    0)
  (define-fun C3_VM11 () Int
    0)
  (define-fun C1_VM2 () Int
    1)
  (define-fun MemProv4 () Int
    6750)
  (define-fun C4_VM2 () Int
    0)
  (define-fun ProcProv5 () Int
    3600)
  (define-fun PriceProv7 () Int
    240)
  (define-fun C5_VM9 () Int
    0)
  (define-fun StorageProv1 () Int
    42000)
  (define-fun ProcProv11 () Int
    900)
  (define-fun C2_VM11 () Int
    0)
  (define-fun C2_VM8 () Int
    0)
  (define-fun VM4Type () Int
    10)
  (define-fun C5_VM11 () Int
    0)
  (define-fun C1_VM7 () Int
    0)
  (define-fun C4_VM1 () Int
    0)
  (define-fun MemProv7 () Int
    3150)
  (define-fun C5_VM8 () Int
    0)
  (define-fun C3_VM3 () Int
    0)
  (define-fun ProcProv3 () Int
    900)
  (define-fun C3_VM8 () Int
    0)
  (define-fun MemProv2 () Int
    1350)
  (define-fun C1_VM6 () Int
    1)
  (define-fun MemProv6 () Int
    1350)
  (define-fun VM8Type () Int
    0)
  (define-fun VM10Type () Int
    0)
  (define-fun C1_VM3 () Int
    1)
  (define-fun C5_VM12 () Int
    0)
  (define-fun StorageProv2 () Int
    42000)
  (define-fun VM3Type () Int
    1)
  (define-fun PriceProv3 () Int
    120)
  (define-fun C3_VM5 () Int
    0)
  (define-fun C5_VM2 () Int
    0)
  (define-fun C5_VM1 () Int
    0)
  (define-fun MemProv3 () Int
    1350)
  (define-fun ProcProv9 () Int
    900)
  (define-fun C4_VM8 () Int
    0)
  (define-fun StorageProv6 () Int
    42000)
  (define-fun PriceProv12 () Int
    0)
  (define-fun MemProv12 () Int
    3150)
  (define-fun C2_VM3 () Int
    1)
  (define-fun VM9Type () Int
    0)
  (define-fun C2_VM7 () Int
    0)
  (define-fun ProcProv12 () Int
    7201)
  (define-fun C4_VM7 () Int
    0)
  (define-fun StorageProv4 () Int
    141000)
  (define-fun VM6Type () Int
    1)
  (define-fun ProcProv2 () Int
    900)
  (define-fun PriceProv9 () Int
    0)
  (define-fun StorageProv3 () Int
    42000)
  (define-fun MemProv1 () Int
    1350)
  (define-fun C5_VM5 () Int
    1)
  (define-fun C2_VM9 () Int
    0)
  (define-fun C4_VM10 () Int
    0)
  (define-fun VM12Type () Int
    0)
  (define-fun C5_VM3 () Int
    0)
  (define-fun ProcProv10 () Int
    7201)
  (define-fun ProcProv6 () Int
    900)
  (define-fun C4_VM11 () Int
    0)
  (define-fun StorageProv9 () Int
    42000)
  (define-fun MemProv5 () Int
    6750)
  (define-fun C3_VM10 () Int
    0)
  (define-fun VM2Type () Int
    1)
  (define-fun C3_VM6 () Int
    0)
  (define-fun C1_VM11 () Int
    0)
  (define-fun C4_VM3 () Int
    0)
  (define-fun C5_VM10 () Int
    0)
  (define-fun ProcProv8 () Int
    900)
  (define-fun PriceProv8 () Int
    0)
  (define-fun StorageProv7 () Int
    69000)
  (define-fun C2_VM1 () Int
    1)
  (define-fun MemProv10 () Int
    13951)
  (define-fun C5_VM4 () Int
    1)
  (define-fun C4_VM12 () Int
    0)
  (define-fun C3_VM12 () Int
    0)
  (define-fun C1_VM4 () Int
    1)
  (define-fun C2_VM6 () Int
    1)
  (define-fun PriceProv10 () Int
    0)
)
(objectives
 ( 18)
 ((+ 0
   PriceProv1
   PriceProv2
   PriceProv3
   PriceProv4
   PriceProv5
   PriceProv6
   PriceProv7
   PriceProv8
   PriceProv9
   PriceProv10
   PriceProv11
   PriceProv12) 1680)
)
(:added-eqs                   179770
 :arith-eq-adapter            10711
 :arith-bound-propagations-lp 95
 :arith-conflicts             20
 :arith-diseq                 87341
 :arith-fixed-eqs             3299
 :arith-lower                 155319
 :arith-make-feasible         21881
 :arith-max-columns           193
 :arith-max-rows              38
 :arith-upper                 67952
 :binary-propagations         579602
 :conflicts                   1330
 :decisions                   66981
 :del-clause                  6710
 :final-checks                9
 :max-memory                  45.66
 :maxsat-cores                1
 :memory                      45.48
 :minimized-lits              9035
 :mk-bool-var                 24250
 :mk-clause                   8955
 :mk-clause-binary            6035
 :num-allocs                  36456388
 :num-checks                  13
 :pb-conflicts                893
 :pb-predicates               607
 :pb-propagations             4428
 :pb-resolves                 854
 :propagations                706827
 :restarts                    10
 :rlimit-count                5521636
 :time                        0.23
 :total-time                  0.23)
